(set-logic QF_LRA)
(declare-fun T1 () Real )
(declare-fun T2 () Real )
(declare-fun T3 () Real )
(declare-fun T4 () Real )
(declare-fun T5 () Real )
(declare-fun T6 () Real )
(declare-fun T7 () Real )
(declare-fun T8 () Real )
(declare-fun Z () Real )
(declare-fun k () Real )
(assert (let
(( $goal (>= Z k) ))
(let
((
$phi ( and 
(or ( <= ( + T1 68 ) T2 ) ( <= ( + T2 87 ) T1 ) )
(or ( <= ( + T1 150 )  ( + T2 87 ) ) ( <= ( + T2 108 )( + T1 68 ) ) )
(or ( <= ( + T1 203 )  ( + T2 108 ) ) ( <= ( + T2 122 )( + T1 150 ) ) )
(or ( <= ( + T1 263 )  ( + T2 122 ) ) ( <= ( + T2 179 )( + T1 203 ) ) )
(or ( <= ( + T1 282 )  ( + T2 179 ) ) ( <= ( + T2 279 )( + T1 263 ) ) )
(or ( <= ( + T1 368 )  ( + T2 279 ) ) ( <= ( + T2 369 )( + T1 282 ) ) )
(or ( <= ( + T1 68 ) T3 ) ( <= ( + T3 74 ) T1 ) )
(or ( <= ( + T1 150 )  ( + T3 74 ) ) ( <= ( + T3 97 )( + T1 68 ) ) )
(or ( <= ( + T1 203 )  ( + T3 97 ) ) ( <= ( + T3 108 )( + T1 150 ) ) )
(or ( <= ( + T1 263 )  ( + T3 108 ) ) ( <= ( + T3 169 )( + T1 203 ) ) )
(or ( <= ( + T1 282 )  ( + T3 169 ) ) ( <= ( + T3 261 )( + T1 263 ) ) )
(or ( <= ( + T1 368 )  ( + T3 261 ) ) ( <= ( + T3 299 )( + T1 282 ) ) )
(or ( <= ( + T1 68 ) T4 ) ( <= ( + T4 27 ) T1 ) )
(or ( <= ( + T1 150 )  ( + T4 27 ) ) ( <= ( + T4 86 )( + T1 68 ) ) )
(or ( <= ( + T1 203 )  ( + T4 86 ) ) ( <= ( + T4 98 )( + T1 150 ) ) )
(or ( <= ( + T1 263 )  ( + T4 98 ) ) ( <= ( + T4 143 )( + T1 203 ) ) )
(or ( <= ( + T1 282 )  ( + T4 143 ) ) ( <= ( + T4 190 )( + T1 263 ) ) )
(or ( <= ( + T1 368 )  ( + T4 190 ) ) ( <= ( + T4 219 )( + T1 282 ) ) )
(or ( <= ( + T1 68 ) T5 ) ( <= ( + T5 80 ) T1 ) )
(or ( <= ( + T1 150 )  ( + T5 80 ) ) ( <= ( + T5 118 )( + T1 68 ) ) )
(or ( <= ( + T1 203 )  ( + T5 118 ) ) ( <= ( + T5 191 )( + T1 150 ) ) )
(or ( <= ( + T1 263 )  ( + T5 191 ) ) ( <= ( + T5 236 )( + T1 203 ) ) )
(or ( <= ( + T1 282 )  ( + T5 236 ) ) ( <= ( + T5 301 )( + T1 263 ) ) )
(or ( <= ( + T1 368 )  ( + T5 301 ) ) ( <= ( + T5 348 )( + T1 282 ) ) )
(or ( <= ( + T1 68 ) T6 ) ( <= ( + T6 49 ) T1 ) )
(or ( <= ( + T1 150 )  ( + T6 49 ) ) ( <= ( + T6 133 )( + T1 68 ) ) )
(or ( <= ( + T1 203 )  ( + T6 133 ) ) ( <= ( + T6 161 )( + T1 150 ) ) )
(or ( <= ( + T1 263 )  ( + T6 161 ) ) ( <= ( + T6 162 )( + T1 203 ) ) )
(or ( <= ( + T1 282 )  ( + T6 162 ) ) ( <= ( + T6 205 )( + T1 263 ) ) )
(or ( <= ( + T1 368 )  ( + T6 205 ) ) ( <= ( + T6 304 )( + T1 282 ) ) )
(or ( <= ( + T1 68 ) T7 ) ( <= ( + T7 86 ) T1 ) )
(or ( <= ( + T1 150 )  ( + T7 86 ) ) ( <= ( + T7 116 )( + T1 68 ) ) )
(or ( <= ( + T1 203 )  ( + T7 116 ) ) ( <= ( + T7 135 )( + T1 150 ) ) )
(or ( <= ( + T1 263 )  ( + T7 135 ) ) ( <= ( + T7 235 )( + T1 203 ) ) )
(or ( <= ( + T1 282 )  ( + T7 235 ) ) ( <= ( + T7 273 )( + T1 263 ) ) )
(or ( <= ( + T1 368 )  ( + T7 273 ) ) ( <= ( + T7 291 )( + T1 282 ) ) )
(or ( <= ( + T1 68 ) T8 ) ( <= ( + T8 89 ) T1 ) )
(or ( <= ( + T1 150 )  ( + T8 89 ) ) ( <= ( + T8 100 )( + T1 68 ) ) )
(or ( <= ( + T1 203 )  ( + T8 100 ) ) ( <= ( + T8 193 )( + T1 150 ) ) )
(or ( <= ( + T1 263 )  ( + T8 193 ) ) ( <= ( + T8 244 )( + T1 203 ) ) )
(or ( <= ( + T1 282 )  ( + T8 244 ) ) ( <= ( + T8 267 )( + T1 263 ) ) )
(or ( <= ( + T1 368 )  ( + T8 267 ) ) ( <= ( + T8 351 )( + T1 282 ) ) )
(or ( <= ( + T2 87 ) T3 ) ( <= ( + T3 74 ) T2 ) )
(or ( <= ( + T2 108 )  ( + T3 74 ) ) ( <= ( + T3 97 )( + T2 87 ) ) )
(or ( <= ( + T2 122 )  ( + T3 97 ) ) ( <= ( + T3 108 )( + T2 108 ) ) )
(or ( <= ( + T2 179 )  ( + T3 108 ) ) ( <= ( + T3 169 )( + T2 122 ) ) )
(or ( <= ( + T2 279 )  ( + T3 169 ) ) ( <= ( + T3 261 )( + T2 179 ) ) )
(or ( <= ( + T2 369 )  ( + T3 261 ) ) ( <= ( + T3 299 )( + T2 279 ) ) )
(or ( <= ( + T2 87 ) T4 ) ( <= ( + T4 27 ) T2 ) )
(or ( <= ( + T2 108 )  ( + T4 27 ) ) ( <= ( + T4 86 )( + T2 87 ) ) )
(or ( <= ( + T2 122 )  ( + T4 86 ) ) ( <= ( + T4 98 )( + T2 108 ) ) )
(or ( <= ( + T2 179 )  ( + T4 98 ) ) ( <= ( + T4 143 )( + T2 122 ) ) )
(or ( <= ( + T2 279 )  ( + T4 143 ) ) ( <= ( + T4 190 )( + T2 179 ) ) )
(or ( <= ( + T2 369 )  ( + T4 190 ) ) ( <= ( + T4 219 )( + T2 279 ) ) )
(or ( <= ( + T2 87 ) T5 ) ( <= ( + T5 80 ) T2 ) )
(or ( <= ( + T2 108 )  ( + T5 80 ) ) ( <= ( + T5 118 )( + T2 87 ) ) )
(or ( <= ( + T2 122 )  ( + T5 118 ) ) ( <= ( + T5 191 )( + T2 108 ) ) )
(or ( <= ( + T2 179 )  ( + T5 191 ) ) ( <= ( + T5 236 )( + T2 122 ) ) )
(or ( <= ( + T2 279 )  ( + T5 236 ) ) ( <= ( + T5 301 )( + T2 179 ) ) )
(or ( <= ( + T2 369 )  ( + T5 301 ) ) ( <= ( + T5 348 )( + T2 279 ) ) )
(or ( <= ( + T2 87 ) T6 ) ( <= ( + T6 49 ) T2 ) )
(or ( <= ( + T2 108 )  ( + T6 49 ) ) ( <= ( + T6 133 )( + T2 87 ) ) )
(or ( <= ( + T2 122 )  ( + T6 133 ) ) ( <= ( + T6 161 )( + T2 108 ) ) )
(or ( <= ( + T2 179 )  ( + T6 161 ) ) ( <= ( + T6 162 )( + T2 122 ) ) )
(or ( <= ( + T2 279 )  ( + T6 162 ) ) ( <= ( + T6 205 )( + T2 179 ) ) )
(or ( <= ( + T2 369 )  ( + T6 205 ) ) ( <= ( + T6 304 )( + T2 279 ) ) )
(or ( <= ( + T2 87 ) T7 ) ( <= ( + T7 86 ) T2 ) )
(or ( <= ( + T2 108 )  ( + T7 86 ) ) ( <= ( + T7 116 )( + T2 87 ) ) )
(or ( <= ( + T2 122 )  ( + T7 116 ) ) ( <= ( + T7 135 )( + T2 108 ) ) )
(or ( <= ( + T2 179 )  ( + T7 135 ) ) ( <= ( + T7 235 )( + T2 122 ) ) )
(or ( <= ( + T2 279 )  ( + T7 235 ) ) ( <= ( + T7 273 )( + T2 179 ) ) )
(or ( <= ( + T2 369 )  ( + T7 273 ) ) ( <= ( + T7 291 )( + T2 279 ) ) )
(or ( <= ( + T2 87 ) T8 ) ( <= ( + T8 89 ) T2 ) )
(or ( <= ( + T2 108 )  ( + T8 89 ) ) ( <= ( + T8 100 )( + T2 87 ) ) )
(or ( <= ( + T2 122 )  ( + T8 100 ) ) ( <= ( + T8 193 )( + T2 108 ) ) )
(or ( <= ( + T2 179 )  ( + T8 193 ) ) ( <= ( + T8 244 )( + T2 122 ) ) )
(or ( <= ( + T2 279 )  ( + T8 244 ) ) ( <= ( + T8 267 )( + T2 179 ) ) )
(or ( <= ( + T2 369 )  ( + T8 267 ) ) ( <= ( + T8 351 )( + T2 279 ) ) )
(or ( <= ( + T3 74 ) T4 ) ( <= ( + T4 27 ) T3 ) )
(or ( <= ( + T3 97 )  ( + T4 27 ) ) ( <= ( + T4 86 )( + T3 74 ) ) )
(or ( <= ( + T3 108 )  ( + T4 86 ) ) ( <= ( + T4 98 )( + T3 97 ) ) )
(or ( <= ( + T3 169 )  ( + T4 98 ) ) ( <= ( + T4 143 )( + T3 108 ) ) )
(or ( <= ( + T3 261 )  ( + T4 143 ) ) ( <= ( + T4 190 )( + T3 169 ) ) )
(or ( <= ( + T3 299 )  ( + T4 190 ) ) ( <= ( + T4 219 )( + T3 261 ) ) )
(or ( <= ( + T3 74 ) T5 ) ( <= ( + T5 80 ) T3 ) )
(or ( <= ( + T3 97 )  ( + T5 80 ) ) ( <= ( + T5 118 )( + T3 74 ) ) )
(or ( <= ( + T3 108 )  ( + T5 118 ) ) ( <= ( + T5 191 )( + T3 97 ) ) )
(or ( <= ( + T3 169 )  ( + T5 191 ) ) ( <= ( + T5 236 )( + T3 108 ) ) )
(or ( <= ( + T3 261 )  ( + T5 236 ) ) ( <= ( + T5 301 )( + T3 169 ) ) )
(or ( <= ( + T3 299 )  ( + T5 301 ) ) ( <= ( + T5 348 )( + T3 261 ) ) )
(or ( <= ( + T3 74 ) T6 ) ( <= ( + T6 49 ) T3 ) )
(or ( <= ( + T3 97 )  ( + T6 49 ) ) ( <= ( + T6 133 )( + T3 74 ) ) )
(or ( <= ( + T3 108 )  ( + T6 133 ) ) ( <= ( + T6 161 )( + T3 97 ) ) )
(or ( <= ( + T3 169 )  ( + T6 161 ) ) ( <= ( + T6 162 )( + T3 108 ) ) )
(or ( <= ( + T3 261 )  ( + T6 162 ) ) ( <= ( + T6 205 )( + T3 169 ) ) )
(or ( <= ( + T3 299 )  ( + T6 205 ) ) ( <= ( + T6 304 )( + T3 261 ) ) )
(or ( <= ( + T3 74 ) T7 ) ( <= ( + T7 86 ) T3 ) )
(or ( <= ( + T3 97 )  ( + T7 86 ) ) ( <= ( + T7 116 )( + T3 74 ) ) )
(or ( <= ( + T3 108 )  ( + T7 116 ) ) ( <= ( + T7 135 )( + T3 97 ) ) )
(or ( <= ( + T3 169 )  ( + T7 135 ) ) ( <= ( + T7 235 )( + T3 108 ) ) )
(or ( <= ( + T3 261 )  ( + T7 235 ) ) ( <= ( + T7 273 )( + T3 169 ) ) )
(or ( <= ( + T3 299 )  ( + T7 273 ) ) ( <= ( + T7 291 )( + T3 261 ) ) )
(or ( <= ( + T3 74 ) T8 ) ( <= ( + T8 89 ) T3 ) )
(or ( <= ( + T3 97 )  ( + T8 89 ) ) ( <= ( + T8 100 )( + T3 74 ) ) )
(or ( <= ( + T3 108 )  ( + T8 100 ) ) ( <= ( + T8 193 )( + T3 97 ) ) )
(or ( <= ( + T3 169 )  ( + T8 193 ) ) ( <= ( + T8 244 )( + T3 108 ) ) )
(or ( <= ( + T3 261 )  ( + T8 244 ) ) ( <= ( + T8 267 )( + T3 169 ) ) )
(or ( <= ( + T3 299 )  ( + T8 267 ) ) ( <= ( + T8 351 )( + T3 261 ) ) )
(or ( <= ( + T4 27 ) T5 ) ( <= ( + T5 80 ) T4 ) )
(or ( <= ( + T4 86 )  ( + T5 80 ) ) ( <= ( + T5 118 )( + T4 27 ) ) )
(or ( <= ( + T4 98 )  ( + T5 118 ) ) ( <= ( + T5 191 )( + T4 86 ) ) )
(or ( <= ( + T4 143 )  ( + T5 191 ) ) ( <= ( + T5 236 )( + T4 98 ) ) )
(or ( <= ( + T4 190 )  ( + T5 236 ) ) ( <= ( + T5 301 )( + T4 143 ) ) )
(or ( <= ( + T4 219 )  ( + T5 301 ) ) ( <= ( + T5 348 )( + T4 190 ) ) )
(or ( <= ( + T4 27 ) T6 ) ( <= ( + T6 49 ) T4 ) )
(or ( <= ( + T4 86 )  ( + T6 49 ) ) ( <= ( + T6 133 )( + T4 27 ) ) )
(or ( <= ( + T4 98 )  ( + T6 133 ) ) ( <= ( + T6 161 )( + T4 86 ) ) )
(or ( <= ( + T4 143 )  ( + T6 161 ) ) ( <= ( + T6 162 )( + T4 98 ) ) )
(or ( <= ( + T4 190 )  ( + T6 162 ) ) ( <= ( + T6 205 )( + T4 143 ) ) )
(or ( <= ( + T4 219 )  ( + T6 205 ) ) ( <= ( + T6 304 )( + T4 190 ) ) )
(or ( <= ( + T4 27 ) T7 ) ( <= ( + T7 86 ) T4 ) )
(or ( <= ( + T4 86 )  ( + T7 86 ) ) ( <= ( + T7 116 )( + T4 27 ) ) )
(or ( <= ( + T4 98 )  ( + T7 116 ) ) ( <= ( + T7 135 )( + T4 86 ) ) )
(or ( <= ( + T4 143 )  ( + T7 135 ) ) ( <= ( + T7 235 )( + T4 98 ) ) )
(or ( <= ( + T4 190 )  ( + T7 235 ) ) ( <= ( + T7 273 )( + T4 143 ) ) )
(or ( <= ( + T4 219 )  ( + T7 273 ) ) ( <= ( + T7 291 )( + T4 190 ) ) )
(or ( <= ( + T4 27 ) T8 ) ( <= ( + T8 89 ) T4 ) )
(or ( <= ( + T4 86 )  ( + T8 89 ) ) ( <= ( + T8 100 )( + T4 27 ) ) )
(or ( <= ( + T4 98 )  ( + T8 100 ) ) ( <= ( + T8 193 )( + T4 86 ) ) )
(or ( <= ( + T4 143 )  ( + T8 193 ) ) ( <= ( + T8 244 )( + T4 98 ) ) )
(or ( <= ( + T4 190 )  ( + T8 244 ) ) ( <= ( + T8 267 )( + T4 143 ) ) )
(or ( <= ( + T4 219 )  ( + T8 267 ) ) ( <= ( + T8 351 )( + T4 190 ) ) )
(or ( <= ( + T5 80 ) T6 ) ( <= ( + T6 49 ) T5 ) )
(or ( <= ( + T5 118 )  ( + T6 49 ) ) ( <= ( + T6 133 )( + T5 80 ) ) )
(or ( <= ( + T5 191 )  ( + T6 133 ) ) ( <= ( + T6 161 )( + T5 118 ) ) )
(or ( <= ( + T5 236 )  ( + T6 161 ) ) ( <= ( + T6 162 )( + T5 191 ) ) )
(or ( <= ( + T5 301 )  ( + T6 162 ) ) ( <= ( + T6 205 )( + T5 236 ) ) )
(or ( <= ( + T5 348 )  ( + T6 205 ) ) ( <= ( + T6 304 )( + T5 301 ) ) )
(or ( <= ( + T5 80 ) T7 ) ( <= ( + T7 86 ) T5 ) )
(or ( <= ( + T5 118 )  ( + T7 86 ) ) ( <= ( + T7 116 )( + T5 80 ) ) )
(or ( <= ( + T5 191 )  ( + T7 116 ) ) ( <= ( + T7 135 )( + T5 118 ) ) )
(or ( <= ( + T5 236 )  ( + T7 135 ) ) ( <= ( + T7 235 )( + T5 191 ) ) )
(or ( <= ( + T5 301 )  ( + T7 235 ) ) ( <= ( + T7 273 )( + T5 236 ) ) )
(or ( <= ( + T5 348 )  ( + T7 273 ) ) ( <= ( + T7 291 )( + T5 301 ) ) )
(or ( <= ( + T5 80 ) T8 ) ( <= ( + T8 89 ) T5 ) )
(or ( <= ( + T5 118 )  ( + T8 89 ) ) ( <= ( + T8 100 )( + T5 80 ) ) )
(or ( <= ( + T5 191 )  ( + T8 100 ) ) ( <= ( + T8 193 )( + T5 118 ) ) )
(or ( <= ( + T5 236 )  ( + T8 193 ) ) ( <= ( + T8 244 )( + T5 191 ) ) )
(or ( <= ( + T5 301 )  ( + T8 244 ) ) ( <= ( + T8 267 )( + T5 236 ) ) )
(or ( <= ( + T5 348 )  ( + T8 267 ) ) ( <= ( + T8 351 )( + T5 301 ) ) )
(or ( <= ( + T6 49 ) T7 ) ( <= ( + T7 86 ) T6 ) )
(or ( <= ( + T6 133 )  ( + T7 86 ) ) ( <= ( + T7 116 )( + T6 49 ) ) )
(or ( <= ( + T6 161 )  ( + T7 116 ) ) ( <= ( + T7 135 )( + T6 133 ) ) )
(or ( <= ( + T6 162 )  ( + T7 135 ) ) ( <= ( + T7 235 )( + T6 161 ) ) )
(or ( <= ( + T6 205 )  ( + T7 235 ) ) ( <= ( + T7 273 )( + T6 162 ) ) )
(or ( <= ( + T6 304 )  ( + T7 273 ) ) ( <= ( + T7 291 )( + T6 205 ) ) )
(or ( <= ( + T6 49 ) T8 ) ( <= ( + T8 89 ) T6 ) )
(or ( <= ( + T6 133 )  ( + T8 89 ) ) ( <= ( + T8 100 )( + T6 49 ) ) )
(or ( <= ( + T6 161 )  ( + T8 100 ) ) ( <= ( + T8 193 )( + T6 133 ) ) )
(or ( <= ( + T6 162 )  ( + T8 193 ) ) ( <= ( + T8 244 )( + T6 161 ) ) )
(or ( <= ( + T6 205 )  ( + T8 244 ) ) ( <= ( + T8 267 )( + T6 162 ) ) )
(or ( <= ( + T6 304 )  ( + T8 267 ) ) ( <= ( + T8 351 )( + T6 205 ) ) )
(or ( <= ( + T7 86 ) T8 ) ( <= ( + T8 89 ) T7 ) )
(or ( <= ( + T7 116 )  ( + T8 89 ) ) ( <= ( + T8 100 )( + T7 86 ) ) )
(or ( <= ( + T7 135 )  ( + T8 100 ) ) ( <= ( + T8 193 )( + T7 116 ) ) )
(or ( <= ( + T7 235 )  ( + T8 193 ) ) ( <= ( + T8 244 )( + T7 135 ) ) )
(or ( <= ( + T7 273 )  ( + T8 244 ) ) ( <= ( + T8 267 )( + T7 235 ) ) )
(or ( <= ( + T7 291 )  ( + T8 267 ) ) ( <= ( + T8 351 )( + T7 273 ) ) )
( <= ( + T1 368 ) Z)
( <= ( + T2 369 ) Z)
( <= ( + T3 299 ) Z)
( <= ( + T4 219 ) Z)
( <= ( + T5 348 ) Z)
( <= ( + T6 304 ) Z)
( <= ( + T7 291 ) Z)
( <= ( + T8 351 ) Z)
( >= T1 0 )
( >= T2 0 )
( >= T3 0 )
( >= T4 0 )
( >= T5 0 )
( >= T6 0 )
( >= T7 0 )
( >= T8 0 )
) )
)(=> $phi $goal))))